NAME : LPS-n20-m193
COMMENT : (Lartu-Peter-Santi Plot, instance 6993 out of 39200. 20 customers.)
TYPE : CVRP
DIMENSION : 20
EDGE_WEIGHT_TYPE : EUC_2D
CAPACITY : 115
NODE_COORD_SECTION
 1 46 38
 2 40 51
 3 78 46
 4 11 36
 5 42 57
 6 97 94
 7 0 57
 8 65 60
 9 51 50
 10 97 47
 11 58 12
 12 46 88
 13 70 50
 14 71 66
 15 28 11
 16 50 28
 17 90 38
 18 68 71
 19 96 49
 20 76 61
DEMAND_SECTION
1 0
2 36
3 38
4 111
5 107
6 90
7 51
8 86
9 91
10 58
11 7
12 91
13 26
14 90
15 102
16 51
17 87
18 2
19 61
20 9
DEPOT_SECTION
 1
 -1
EOF
